objective value:                                    0
delta[0,2]*                                        10 	(obj:0)
delta[1,3]*                                        10 	(obj:0)
mu[0,2,32]*                          7.37504200589267 	(obj:0)
mu[1,3,33]*                          3.38196058506067 	(obj:0)
mu[0,2,34]*                          2.62495799410733 	(obj:0)
mu[1,3,35]*                          6.61803941493933 	(obj:0)
